3 
4  27 50 
5  08 22 37 51 
6  06 21 36 51 
7  06 21 36 51 
8  06 21 36 51 
9  06 21 36 51 
10  06 22 37 52 
11  07 22 37 52 
12  07 22 37 52 
13  07 22 35 50 
14  08 23 38 53 
15  10 25 39 54 
16  09 24 39 54 
17  09 24 39 53 
18  08 23 35 50 
19  05 20 33 47 
20  02 17 32 47 
21  02 17 32 47 
22  02 17 32 49 
23  01 12 25 
0 
